max_width = 30;
n_blocks = 28;
width = [9, 14, 12, 12, 9, 9, 4, 9, 8, 4, 12, 6, 3, 3, 3, 3, 4, 2, 2, 8, 12, 3, 6, 3, 2, 1, 1, 2];
height = [24, 14, 14, 13, 17, 11, 24, 8, 9, 17, 5, 9, 18, 16, 14, 12, 8, 14, 13, 3, 2, 6, 3, 5, 5, 6, 5, 2];
